Si8                                     
   1.00000000000000     
     2.3980500000000000   -4.0121000000000002    0.0000000000000000
     2.3980500000000000    4.0121000000000002    0.0000000000000000
     0.0000000000000000    0.0000000000000000    4.7759999999999998
   Si
     8
Direct
  0.3269999999999982  0.3269999999999982  0.8280000000000030
  0.6730000000000018  0.6730000000000018  0.1719999999999970
  0.1730000000000018  0.1730000000000018  0.3280000000000030
  0.8269999999999982  0.8269999999999982  0.6719999999999970
  0.7180000000000035  0.2819999999999965  0.5000000000000000
  0.2180000000000035  0.7819999999999965  0.0000000000000000
  0.2819999999999965  0.7180000000000035  0.5000000000000000
  0.7819999999999965  0.2180000000000035  0.0000000000000000
 
  0.00000000E+00  0.00000000E+00  0.00000000E+00
  0.00000000E+00  0.00000000E+00  0.00000000E+00
  0.00000000E+00  0.00000000E+00  0.00000000E+00
  0.00000000E+00  0.00000000E+00  0.00000000E+00
  0.00000000E+00  0.00000000E+00  0.00000000E+00
  0.00000000E+00  0.00000000E+00  0.00000000E+00
  0.00000000E+00  0.00000000E+00  0.00000000E+00
  0.00000000E+00  0.00000000E+00  0.00000000E+00
