Si8                                     
   1.00000000000000     
     2.4558831615410099   -4.6532399817929582   -0.0000000053946692
     2.4558831609797660    4.6532399939697102    0.0000000101428589
    -0.0000000012303174    0.0000000162617202    5.3609073504961380
   Si
     8
Direct
  0.5001023345840991  0.5001023332467796  0.7715508857888196
  0.4998976673768567  0.4998976673473408  0.2284491143284839
  0.9998976686239942  0.9998976665341388  0.2715508865513314
  0.0001023321640616  0.0001023324740501  0.7284491128069490
  0.7235261917980722  0.2764738101614412  0.5000000001914060
  0.2235261913094320  0.7764738078031925  0.0000000008091448
  0.2764738059101219  0.7235261901307055  0.4999999982893044
  0.7764738082333551  0.2235261923023444  0.0000000012345538
 
  0.00000000E+00  0.00000000E+00  0.00000000E+00
  0.00000000E+00  0.00000000E+00  0.00000000E+00
  0.00000000E+00  0.00000000E+00  0.00000000E+00
  0.00000000E+00  0.00000000E+00  0.00000000E+00
  0.00000000E+00  0.00000000E+00  0.00000000E+00
  0.00000000E+00  0.00000000E+00  0.00000000E+00
  0.00000000E+00  0.00000000E+00  0.00000000E+00
  0.00000000E+00  0.00000000E+00  0.00000000E+00
