Ta4 Ga1 Se8                             
   1.00000000000000     
     0.0000000000000000    5.2631379268381497    5.2631379268381497
     5.2631379268381497   -0.0000000000000000    5.2631379268381497
     5.2631379268381497    5.2631379268381497   -0.0000000000000000
   Ta   Ga   Se
     4     1     8
Direct
  0.6024429388409684  0.6024429388409684  0.1926711834770883
  0.6024429388409684  0.1926711834770883  0.6024429388409684
  0.1926711834770883  0.6024429388409684  0.6024429388409684
  0.6024429388409684  0.6024429388409684  0.6024429388409684
  0.0000000000000000  0.0000000000000000  0.0000000000000000
  0.3639854903792995  0.3639854903792995  0.9080435288621087
  0.3639854903792995  0.9080435288621087  0.3639854903792995
  0.9080435288621087  0.3639854903792995  0.3639854903792995
  0.3639854903792995  0.3639854903792995  0.3639854903792995
  0.8649930456993516  0.8649930456993516  0.4050208629019382
  0.8649930456993516  0.4050208629019382  0.8649930456993516
  0.4050208629019382  0.8649930456993516  0.8649930456993516
  0.8649930456993516  0.8649930456993516  0.8649930456993516
 
  0.00000000E+00  0.00000000E+00  0.00000000E+00
  0.00000000E+00  0.00000000E+00  0.00000000E+00
  0.00000000E+00  0.00000000E+00  0.00000000E+00
  0.00000000E+00  0.00000000E+00  0.00000000E+00
  0.00000000E+00  0.00000000E+00  0.00000000E+00
  0.00000000E+00  0.00000000E+00  0.00000000E+00
  0.00000000E+00  0.00000000E+00  0.00000000E+00
  0.00000000E+00  0.00000000E+00  0.00000000E+00
  0.00000000E+00  0.00000000E+00  0.00000000E+00
  0.00000000E+00  0.00000000E+00  0.00000000E+00
  0.00000000E+00  0.00000000E+00  0.00000000E+00
  0.00000000E+00  0.00000000E+00  0.00000000E+00
  0.00000000E+00  0.00000000E+00  0.00000000E+00
