ISTART = 0
SYMPREC = 1E-04
ISPIN = 2
LREAL = .F.
ENCUT = 520
PREC = Accurate
LWAVE = .F.
LCHARG = .F.
ADDGRID = .T.
NPAR = 6
NBLOCK = 1
INIWAV = 1
ISMEAR = 0
SIGMA = 0.05
ALGO = Normal
NELM = 60
NELMIN = 6
EDIFF = 1E-04
NSW = 40
IBRION = 2
ISIF = 3
EDIFFG = -1E-03
POTIM = 0.05
LCORR = .T.
AMIX = 0.1
BMIX = 1.2
LDAU = .T
LDAUTYPE = 2
LDAUL = 2  2  -1
LDAUU = 2.0  3.9  0
LDAUJ = 0  0  0
LMAXMIX = 4
