Ta4 Ga1 Se8                             
   1.00000000000000     
    -0.0000000000000000    5.2629051795741288    5.2629051795741288
     5.2629051795741288    0.0000000000000000    5.2629051795741288
     5.2629051795741288    5.2629051795741288    0.0000000000000000
   Ta   Ga   Se
     4     1     8
Direct
  0.6023656883597497  0.6023656883597497  0.1929029349207504
  0.6023656883597497  0.1929029349207504  0.6023656883597497
  0.1929029349207504  0.6023656883597497  0.6023656883597497
  0.6023656883597497  0.6023656883597497  0.6023656883597497
  0.0000000000000000  0.0000000000000000  0.0000000000000000
  0.3640074002490200  0.3640074002490200  0.9079777992529402
  0.3640074002490200  0.9079777992529402  0.3640074002490200
  0.9079777992529402  0.3640074002490200  0.3640074002490200
  0.3640074002490200  0.3640074002490200  0.3640074002490200
  0.8650004435245077  0.8650004435245077  0.4049986694264690
  0.8650004435245077  0.4049986694264690  0.8650004435245077
  0.4049986694264690  0.8650004435245077  0.8650004435245077
  0.8650004435245077  0.8650004435245077  0.8650004435245077
 
  0.00000000E+00  0.00000000E+00  0.00000000E+00
  0.00000000E+00  0.00000000E+00  0.00000000E+00
  0.00000000E+00  0.00000000E+00  0.00000000E+00
  0.00000000E+00  0.00000000E+00  0.00000000E+00
  0.00000000E+00  0.00000000E+00  0.00000000E+00
  0.00000000E+00  0.00000000E+00  0.00000000E+00
  0.00000000E+00  0.00000000E+00  0.00000000E+00
  0.00000000E+00  0.00000000E+00  0.00000000E+00
  0.00000000E+00  0.00000000E+00  0.00000000E+00
  0.00000000E+00  0.00000000E+00  0.00000000E+00
  0.00000000E+00  0.00000000E+00  0.00000000E+00
  0.00000000E+00  0.00000000E+00  0.00000000E+00
  0.00000000E+00  0.00000000E+00  0.00000000E+00
