SYSTEM = matgen
NWRITE = 2
LPETIM = F
ISTART = 0
AMIX = 0.1
BMIX = 1.2
ISPIN = 2
LREAL = .F.
ENCUT = 520
PREC = Accurate
LWAVE = .F.
LCHARG = .F.
ADDGRID = .T.
NPAR = 4
NBLOCK = 1
KBLOCK = 5
INIWAV = 1
ISMEAR = 0
SIGMA = 0.05
ALGO = Normal
LDIAG = T
WEIMIN = 0
NELM = 140
NELMIN = 5
EDIFF = 1E-04
NSW = 0
IBRION = -1
ISIF = 0
EDIFFG = -1E-02
POTIM = 0.05
LCORR = T
LDAU = .T
LDAUTYPE = 2
LDAUL = 2  2  -1
LDAUU = 2.0  3.9  0
LDAUJ = 0  0  0
LMAXMIX = 4
