Ta4 Ga1 Se8
1.0
0.000000 4.997000 4.997000
4.997000 0.000000 4.997000
4.997000 4.997000 0.000000
Ta Ga Se
4 1 8
direct
0.603600 0.603600 0.189200 Ta0+
0.603600 0.189200 0.603600 Ta0+
0.189200 0.603600 0.603600 Ta0+
0.603600 0.603600 0.603600 Ta0+
0.000000 0.000000 0.000000 Ga0+
0.360000 0.360000 0.920000 Se0+
0.360000 0.920000 0.360000 Se0+
0.920000 0.360000 0.360000 Se0+
0.360000 0.360000 0.360000 Se0+
0.866600 0.866600 0.400200 Se0+
0.866600 0.400200 0.866600 Se0+
0.400200 0.866600 0.866600 Se0+
0.866600 0.866600 0.866600 Se0+
