SYSTEM = matgen-band
ISTART = 1
NWRITE = 2
ISYM = 0
LPETIM = .F.
ISPIN = 1
ICHARG = 11
LREAL = Auto
ENCUT = 520
PREC = Accurate
LWAVE = .F.
LCHARG = .F.
ADDGRID = .T.
NPAR = 4
NBLOCK = 1
INIWAV = 1
ISMEAR = 0
SIGMA = 0.05
ALGO = Normal
NELM = 140
NELMIN = 6
EDIFF = 1E-04
NSW = 0
IBRION = -1
ISIF = 0
EDIFFG = -1E-03
POTIM = 0.05
LORBIT = 11
NBANDS = 28
AMIX = 0.1
BMIX = 1.2
