k-points along high symmetry lines
20
Line-mode
rec
0.0 0.0 0.0  ! GAMMA
0.5 0.5 0.0  ! Y

0.5 0.5 0.0  ! Y
0.3196377143557235 0.6803622856442765 0.0  ! F_0

-0.3196377143557235 0.3196377143557235 0.0  ! DELTA_0
0.0 0.0 0.0  ! GAMMA

0.0 0.0 0.0  ! GAMMA
0.0 0.0 0.5  ! Z

0.0 0.0 0.5  ! Z
-0.3196377143557235 0.3196377143557235 0.5  ! B_0

0.3196377143557235 0.6803622856442765 0.5  ! G_0
0.5 0.5 0.5  ! T

0.5 0.5 0.5  ! T
0.5 0.5 0.0  ! Y

0.0 0.0 0.0  ! GAMMA
0.0 0.5 0.0  ! S

0.0 0.5 0.0  ! S
0.0 0.5 0.5  ! R

0.0 0.5 0.5  ! R
0.0 0.0 0.5  ! Z

0.0 0.0 0.5  ! Z
0.5 0.5 0.5  ! T
