MATGEN KPT
40
LineMode
Rec
0.0	0.0	0.0	! GAMMA
0.5	0.5	0.0	! Y
0.5	0.5	0.0	! Y
0.3393126506112907	0.6606873493887093	0.0	! F_0
-0.3393126506112907	0.3393126506112907	0.0	! DELTA_0
0.0	0.0	0.0	! GAMMA
0.0	0.0	0.0	! GAMMA
0.0	0.0	0.5	! Z
0.0	0.0	0.5	! Z
-0.3393126506112907	0.3393126506112907	0.5	! B_0
0.3393126506112907	0.6606873493887093	0.5	! G_0
0.5	0.5	0.5	! T
0.5	0.5	0.5	! T
0.5	0.5	0.0	! Y
0.0	0.0	0.0	! GAMMA
0.0	0.5	0.0	! S
0.0	0.5	0.0	! S
0.0	0.5	0.5	! R
0.0	0.5	0.5	! R
0.0	0.0	0.5	! Z
0.0	0.0	0.5	! Z
0.5	0.5	0.5	! T
