Si8                                     
   1.00000000000000     
     2.4558831615410099   -4.6532399817929582   -0.0000000053946692
     2.4558831609797660    4.6532399939697102    0.0000000101428589
    -0.0000000012303174    0.0000000162617202    5.3609073504961380
   Si
     8
Direct
  0.5001023345840989  0.5001023332467808  0.7715508857888179
  0.4998976673768578  0.4998976673473425  0.2284491143284865
  0.9998976686239927  0.9998976665341409  0.2715508865513334
  0.0001023321640643  0.0001023324740468  0.7284491128069519
  0.7235261917980711  0.2764738101614408  0.5000000001914076
  0.2235261913094325  0.7764738078031944  0.0000000008091477
  0.2764738059101246  0.7235261901307030  0.4999999982893032
  0.7764738082333579  0.2235261923023442  0.0000000012345516
 
  0.00000000E+00  0.00000000E+00  0.00000000E+00
  0.00000000E+00  0.00000000E+00  0.00000000E+00
  0.00000000E+00  0.00000000E+00  0.00000000E+00
  0.00000000E+00  0.00000000E+00  0.00000000E+00
  0.00000000E+00  0.00000000E+00  0.00000000E+00
  0.00000000E+00  0.00000000E+00  0.00000000E+00
  0.00000000E+00  0.00000000E+00  0.00000000E+00
  0.00000000E+00  0.00000000E+00  0.00000000E+00
