Si8                                     
   1.00000000000000     
     2.4555794913677786   -4.6511610288724761   -0.0000000052207838
     2.4555794163264779    4.6511610011974023   -0.0000000051007400
    -0.0000000160166377    0.0000000041001520    5.3606813008197820
   Si
     8
Direct
  0.5013472503393157  0.5013472491692028  0.7710893264146277
  0.4986527739624416  0.4986527691250385  0.2289106722195338
 -0.0013472396443753 -0.0013472429846342  0.2710893275477166
  0.0013472189723344  0.0013472146045004  0.7289106726729957
  0.7238152549354353  0.2761847544105993  0.5000000062976030
  0.2238152291805773  0.7761847324650930 -0.0000000073455756
  0.2761847458292006  0.7238152512833839  0.5000000053572274
  0.7761847664250703  0.2238152719268168 -0.0000000031641283
 
  0.00000000E+00  0.00000000E+00  0.00000000E+00
  0.00000000E+00  0.00000000E+00  0.00000000E+00
  0.00000000E+00  0.00000000E+00  0.00000000E+00
  0.00000000E+00  0.00000000E+00  0.00000000E+00
  0.00000000E+00  0.00000000E+00  0.00000000E+00
  0.00000000E+00  0.00000000E+00  0.00000000E+00
  0.00000000E+00  0.00000000E+00  0.00000000E+00
  0.00000000E+00  0.00000000E+00  0.00000000E+00
