Ta4 Ga1 Se8                             
   1.00000000000000     
     0.0000000000000000    4.9969999999999999    4.9969999999999999
     4.9969999999999999    0.0000000000000000    4.9969999999999999
     4.9969999999999999    4.9969999999999999    0.0000000000000000
   Ta   Ga   Se
     4     1     8
Direct
  0.6036000000000001  0.6036000000000001  0.1891999999999996
  0.6036000000000001  0.1891999999999996  0.6036000000000001
  0.1891999999999996  0.6036000000000001  0.6036000000000001
  0.6036000000000001  0.6036000000000001  0.6036000000000001
  0.0000000000000000  0.0000000000000000  0.0000000000000000
  0.3599999999999994  0.3599999999999994  0.9200000000000017
  0.3599999999999994  0.9200000000000017  0.3599999999999994
  0.9200000000000017  0.3599999999999994  0.3599999999999994
  0.3599999999999994  0.3599999999999994  0.3599999999999994
  0.8665999999999983  0.8665999999999983  0.4001999999999981
  0.8665999999999983  0.4001999999999981  0.8665999999999983
  0.4001999999999981  0.8665999999999983  0.8665999999999983
  0.8665999999999983  0.8665999999999983  0.8665999999999983
 
  0.00000000E+00  0.00000000E+00  0.00000000E+00
  0.00000000E+00  0.00000000E+00  0.00000000E+00
  0.00000000E+00  0.00000000E+00  0.00000000E+00
  0.00000000E+00  0.00000000E+00  0.00000000E+00
  0.00000000E+00  0.00000000E+00  0.00000000E+00
  0.00000000E+00  0.00000000E+00  0.00000000E+00
  0.00000000E+00  0.00000000E+00  0.00000000E+00
  0.00000000E+00  0.00000000E+00  0.00000000E+00
  0.00000000E+00  0.00000000E+00  0.00000000E+00
  0.00000000E+00  0.00000000E+00  0.00000000E+00
  0.00000000E+00  0.00000000E+00  0.00000000E+00
  0.00000000E+00  0.00000000E+00  0.00000000E+00
  0.00000000E+00  0.00000000E+00  0.00000000E+00
